NAME          COPTPROB
OBJSENSE
  MIN
ROWS
 N  __OBJ___
 L  C36     
 L  C90     
 L  C111    
 L  C164    
COLUMNS
    MARKER    'MARKER'                 'INTORG'
    x69       __OBJ___  234
    x69       C36       -1
    x69       C111      -1
    x368      __OBJ___  191
    x368      C36       -1
    x368      C90       -1
    x476      __OBJ___  59
    x476      C164      -1
    x661      __OBJ___  139
    x661      C111      -1
    x661      C164      -1
    x981      __OBJ___  101
    x981      C90       -1
    x981      C164      -1
    x1463     __OBJ___  132
    x1463     C111      -1
    x1534     __OBJ___  82
    x1534     C90       -1
    MARKER    'MARKER'                 'INTEND'
RHS
    RHS       __OBJ___  -8413
    RHS       C36       -1
    RHS       C90       -1
    RHS       C111      -1
    RHS       C164      -1
BOUNDS
 UP BOUND     x69       1
 UP BOUND     x368      1
 UP BOUND     x476      1
 UP BOUND     x661      1
 UP BOUND     x981      1
 UP BOUND     x1463     1
 UP BOUND     x1534     1
ENDATA
